DIMACS_lns/graph-1000-346.col
p edge 1000 1805
e 1 229
e 1 17
e 1 559
e 1 691
e 1 498
e 1 571
e 3 840
e 3 336
e 3 539
e 3 525
e 3 488
e 3 32
e 3 196
e 4 948
e 4 11
e 4 352
e 4 691
e 4 155
e 5 335
e 5 362
e 5 488
e 5 663
e 7 25
e 7 772
e 7 699
e 7 328
e 8 521
e 8 486
e 8 48
e 8 781
e 8 594
e 8 694
e 9 97
e 9 684
e 9 927
e 9 888
e 9 671
e 10 914
e 10 223
e 10 265
e 11 475
e 11 18
e 11 555
e 11 116
e 11 834
e 12 516
e 12 616
e 12 864
e 12 802
e 12 696
e 12 130
e 13 994
e 13 533
e 13 821
e 13 156
e 14 322
e 14 595
e 14 330
e 14 901
e 14 945
e 14 471
e 16 798
e 16 104
e 16 275
e 16 824
e 17 311
e 17 167
e 17 58
e 17 252
e 17 236
e 17 487
e 18 902
e 18 166
e 18 398
e 18 609
e 18 699
e 19 286
e 19 107
e 19 721
e 19 480
e 22 526
e 22 724
e 22 357
e 22 198
e 23 835
e 23 331
e 23 902
e 23 305
e 23 279
e 23 748
e 23 697
e 24 612
e 24 424
e 24 500
e 24 517
e 24 638
e 24 435
e 24 702
e 24 102
e 25 357
e 25 445
e 26 527
e 26 513
e 26 486
e 26 111
e 26 120
e 26 871
e 27 704
e 27 330
e 27 570
e 27 672
e 27 108
e 28 964
e 28 290
e 28 322
e 30 406
e 30 594
e 30 41
e 30 489
e 30 950
e 30 150
e 30 910
e 30 86
e 30 557
e 32 612
e 32 857
e 32 163
e 32 763
e 32 853
e 32 411
e 33 582
e 33 359
e 33 982
e 33 339
e 33 234
e 33 727
e 37 499
e 37 952
e 37 135
e 37 513
e 37 530
e 39 231
e 39 68
e 39 154
e 39 366
e 39 452
e 39 442
e 40 876
e 40 912
e 40 899
e 40 395
e 41 532
e 41 468
e 41 210
e 41 767
e 41 991
e 41 563
e 41 578
e 42 327
e 42 841
e 42 76
e 42 580
e 43 302
e 43 661
e 43 749
e 44 46
e 44 824
e 44 820
e 44 129
e 44 565
e 44 148
e 45 598
e 45 300
e 45 176
e 45 221
e 46 483
e 46 155
e 46 560
e 46 902
e 46 889
e 46 114
e 46 446
e 47 120
e 47 652
e 47 786
e 47 572
e 47 222
e 48 513
e 48 838
e 48 938
e 48 653
e 50 827
e 50 302
e 50 233
e 51 124
e 51 668
e 51 438
e 51 141
e 52 120
e 52 859
e 52 805
e 52 69
e 53 734
e 53 949
e 53 237
e 53 454
e 53 426
e 53 689
e 53 328
e 53 410
e 53 337
e 53 233
e 55 628
e 55 889
e 55 388
e 56 75
e 56 442
e 56 678
e 56 423
e 56 138
e 56 949
e 56 942
e 56 954
e 57 867
e 57 846
e 57 833
e 57 829
e 57 862
e 57 255
e 57 933
e 58 648
e 58 870
e 58 524
e 58 462
e 58 728
e 58 267
e 58 463
e 58 765
e 58 404
e 59 729
e 59 343
e 59 76
e 59 226
e 59 948
e 59 239
e 59 864
e 60 263
e 60 724
e 60 802
e 60 897
e 62 773
e 62 79
e 62 559
e 62 947
e 63 524
e 63 857
e 63 961
e 63 329
e 64 972
e 64 593
e 64 114
e 64 833
e 64 134
e 65 107
e 65 392
e 65 138
e 65 722
e 65 841
e 65 396
e 66 105
e 66 86
e 66 138
e 66 178
e 66 799
e 66 141
e 66 624
e 66 365
e 68 368
e 68 290
e 69 762
e 69 823
e 69 552
e 69 645
e 70 569
e 70 652
e 70 111
e 70 667
e 71 274
e 71 950
e 71 579
e 71 185
e 71 758
e 71 88
e 72 921
e 72 685
e 72 777
e 73 945
e 73 815
e 73 101
e 73 149
e 73 927
e 73 924
e 74 314
e 74 831
e 74 948
e 74 315
e 74 465
e 75 214
e 75 747
e 75 945
e 75 141
e 76 419
e 76 322
e 76 416
e 78 573
e 78 390
e 78 156
e 78 967
e 78 645
e 79 252
e 79 720
e 80 430
e 80 860
e 80 280
e 81 525
e 81 297
e 81 375
e 82 635
e 82 840
e 82 956
e 83 469
e 83 353
e 83 937
e 83 283
e 84 487
e 84 848
e 84 879
e 84 88
e 84 699
e 85 253
e 85 630
e 85 472
e 85 531
e 86 791
e 86 339
e 86 839
e 86 714
e 86 211
e 86 274
e 88 523
e 89 240
e 89 97
e 89 565
e 89 91
e 91 694
e 91 846
e 91 939
e 91 437
e 91 671
e 91 253
e 91 541
e 91 443
e 92 627
e 92 329
e 92 573
e 92 470
e 92 453
e 93 362
e 93 296
e 93 254
e 95 446
e 95 649
e 95 937
e 97 308
e 97 767
e 97 763
e 97 847
e 97 116
e 99 723
e 99 237
e 99 880
e 99 632
e 99 163
e 99 692
e 99 921
e 99 104
e 99 126
e 101 368
e 101 720
e 102 439
e 102 549
e 102 440
e 102 321
e 102 234
e 103 604
e 103 934
e 103 660
e 103 508
e 104 813
e 104 773
e 104 542
e 104 161
e 104 721
e 105 128
e 105 571
e 105 184
e 105 537
e 105 869
e 105 552
e 107 370
e 107 594
e 107 335
e 107 693
e 108 574
e 108 654
e 109 798
e 109 674
e 109 920
e 109 558
e 109 529
e 109 966
e 109 140
e 109 594
e 109 174
e 109 524
e 111 386
e 111 280
e 111 201
e 112 384
e 112 742
e 112 167
e 112 834
e 113 934
e 113 942
e 113 120
e 114 854
e 114 132
e 115 793
e 115 275
e 115 993
e 116 263
e 116 160
e 116 211
e 116 561
e 119 201
e 119 468
e 119 920
e 120 805
e 120 918
e 120 854
e 120 223
e 120 598
e 120 722
e 121 222
e 121 587
e 121 574
e 121 497
e 123 566
e 123 374
e 123 616
e 123 314
e 124 152
e 124 314
e 125 530
e 125 927
e 125 259
e 126 705
e 126 942
e 128 801
e 128 954
e 129 391
e 129 565
e 129 774
e 129 896
e 130 489
e 130 152
e 131 658
e 131 901
e 131 410
e 131 963
e 131 580
e 131 890
e 131 360
e 132 425
e 132 487
e 132 935
e 132 546
e 132 157
e 133 648
e 133 453
e 133 254
e 133 654
e 134 784
e 134 847
e 134 841
e 134 937
e 135 351
e 135 544
e 137 227
e 137 483
e 137 891
e 137 542
e 138 373
e 138 696
e 138 559
e 138 844
e 138 922
e 139 904
e 139 190
e 139 303
e 139 885
e 140 695
e 140 477
e 140 329
e 140 943
e 141 562
e 141 888
e 141 943
e 141 554
e 144 505
e 144 577
e 144 295
e 144 628
e 144 650
e 144 424
e 144 675
e 148 819
e 148 545
e 148 384
e 148 842
e 149 950
e 149 447
e 149 151
e 149 334
e 150 625
e 150 795
e 150 830
e 150 786
e 151 530
e 151 196
e 152 593
e 152 758
e 152 365
e 152 756
e 152 634
e 154 362
e 154 489
e 154 855
e 155 353
e 155 275
e 156 483
e 156 384
e 156 579
e 156 967
e 157 489
e 157 580
e 157 618
e 157 722
e 157 212
e 158 630
e 158 828
e 158 454
e 158 199
e 160 799
e 160 997
e 160 735
e 161 305
e 161 919
e 161 788
e 161 837
e 161 787
e 162 570
e 162 578
e 162 734
e 162 287
e 163 808
e 164 739
e 164 508
e 164 557
e 164 582
e 164 389
e 164 326
e 165 203
e 165 982
e 165 984
e 165 183
e 165 334
e 166 948
e 166 486
e 166 685
e 166 598
e 166 714
e 166 528
e 166 214
e 167 739
e 167 634
e 167 924
e 167 551
e 168 945
e 168 795
e 168 812
e 168 177
e 170 978
e 170 823
e 170 724
e 170 337
e 170 579
e 171 439
e 171 783
e 171 405
e 171 869
e 174 728
e 174 515
e 174 686
e 174 497
e 176 573
e 176 653
e 176 697
e 177 974
e 177 421
e 177 943
e 178 719
e 178 747
e 178 658
e 178 392
e 178 244
e 178 248
e 178 971
e 180 489
e 180 749
e 180 680
e 180 323
e 180 268
e 181 919
e 181 927
e 181 952
e 181 885
e 181 974
e 181 196
e 181 998
e 181 914
e 183 563
e 183 755
e 184 563
e 184 244
e 185 581
e 185 601
e 185 246
e 186 769
e 186 437
e 186 649
e 187 567
e 187 276
e 187 227
e 188 784
e 188 626
e 188 215
e 188 296
e 190 815
e 190 379
e 190 922
e 191 952
e 191 517
e 191 472
e 191 432
e 191 443
e 192 1000
e 192 742
e 192 561
e 192 960
e 192 587
e 192 969
e 194 376
e 194 350
e 194 721
e 196 942
e 196 907
e 196 896
e 196 472
e 198 533
e 198 323
e 198 604
e 198 956
e 199 200
e 199 311
e 199 968
e 199 262
e 200 847
e 200 761
e 201 962
e 201 442
e 202 827
e 202 455
e 202 295
e 202 214
e 203 440
e 203 437
e 203 243
e 204 949
e 204 309
e 204 506
e 204 638
e 205 974
e 205 240
e 205 405
e 205 685
e 205 471
e 207 920
e 207 864
e 207 945
e 207 847
e 207 663
e 209 818
e 209 568
e 209 637
e 209 796
e 209 249
e 210 291
e 210 737
e 211 765
e 211 608
e 212 268
e 212 669
e 213 227
e 213 940
e 213 869
e 214 515
e 215 344
e 215 592
e 215 322
e 215 666
e 215 848
e 217 905
e 217 395
e 217 422
e 217 249
e 217 773
e 217 473
e 218 442
e 218 227
e 218 576
e 218 473
e 220 500
e 220 542
e 220 739
e 220 809
e 221 699
e 221 860
e 222 438
e 222 889
e 223 528
e 223 537
e 223 601
e 224 738
e 224 578
e 224 594
e 225 937
e 225 693
e 225 578
e 225 739
e 226 520
e 226 239
e 226 558
e 226 985
e 227 749
e 227 443
e 227 911
e 229 904
e 229 295
e 229 327
e 229 883
e 231 923
e 231 922
e 232 603
e 232 744
e 232 894
e 232 592
e 233 297
e 233 479
e 233 370
e 234 531
e 234 844
e 234 972
e 234 594
e 234 773
e 236 457
e 236 757
e 236 572
e 236 692
e 236 931
e 237 413
e 237 637
e 237 478
e 237 924
e 237 270
e 238 956
e 238 900
e 238 363
e 238 428
e 239 755
e 239 374
e 239 658
e 239 942
e 240 286
e 240 432
e 240 416
e 240 867
e 240 257
e 240 985
e 240 658
e 241 875
e 241 754
e 241 262
e 241 529
e 242 879
e 242 432
e 242 579
e 242 927
e 242 838
e 242 983
e 242 467
e 243 450
e 243 967
e 243 626
e 243 616
e 243 876
e 244 520
e 244 518
e 244 373
e 244 972
e 245 930
e 245 303
e 245 503
e 245 984
e 246 862
e 246 405
e 246 887
e 248 522
e 248 999
e 248 344
e 249 952
e 249 950
e 250 853
e 250 786
e 250 734
e 250 666
e 250 846
e 250 626
e 250 578
e 250 660
e 252 544
e 252 498
e 252 264
e 252 601
e 253 881
e 253 708
e 254 826
e 254 532
e 255 755
e 255 708
e 255 280
e 255 704
e 255 425
e 257 513
e 257 993
e 257 653
e 257 796
e 257 585
e 258 631
e 258 362
e 258 689
e 258 861
e 259 273
e 259 554
e 259 812
e 259 707
e 259 399
e 260 761
e 260 942
e 260 700
e 260 369
e 262 942
e 262 476
e 262 520
e 262 930
e 262 308
e 262 769
e 263 337
e 263 530
e 264 733
e 264 648
e 265 802
e 265 673
e 266 558
e 266 686
e 266 840
e 266 434
e 266 799
e 267 568
e 267 605
e 267 686
e 267 286
e 267 707
e 267 334
e 268 905
e 270 928
e 270 528
e 271 451
e 271 669
e 271 465
e 271 761
e 273 762
e 273 608
e 273 876
e 273 860
e 274 507
e 274 891
e 274 889
e 275 579
e 275 375
e 275 744
e 276 463
e 276 834
e 279 439
e 279 315
e 279 375
e 279 405
e 280 861
e 283 944
e 283 492
e 283 787
e 286 842
e 286 343
e 286 653
e 286 570
e 287 447
e 287 754
e 287 490
e 289 660
e 289 956
e 289 513
e 289 821
e 289 757
e 289 1000
e 290 889
e 290 744
e 290 858
e 290 658
e 291 653
e 291 672
e 291 799
e 293 786
e 293 553
e 293 531
e 293 816
e 294 478
e 294 870
e 294 901
e 294 999
e 294 682
e 295 960
e 295 928
e 296 354
e 297 503
e 297 409
e 297 840
e 300 798
e 300 846
e 300 399
e 300 510
e 300 523
e 302 865
e 302 535
e 303 970
e 304 396
e 304 855
e 304 468
e 305 767
e 307 853
e 307 522
e 307 313
e 307 534
e 308 526
e 308 424
e 308 539
e 309 871
e 309 625
e 309 826
e 311 822
e 311 761
e 312 317
e 312 437
e 312 476
e 313 378
e 313 977
e 313 932
e 314 476
e 314 716
e 315 894
e 315 530
e 315 328
e 317 724
e 317 783
e 317 475
e 317 601
e 318 941
e 318 505
e 318 653
e 321 689
e 321 881
e 322 680
e 322 586
e 323 859
e 324 465
e 324 411
e 324 821
e 324 880
e 326 754
e 326 546
e 326 479
e 326 532
e 327 576
e 328 616
e 329 510
e 330 578
e 330 515
e 330 605
e 331 536
e 331 584
e 331 968
e 332 384
e 332 699
e 332 396
e 335 958
e 336 676
e 336 579
e 336 766
e 336 781
e 337 653
e 337 760
e 337 625
e 337 720
e 339 780
e 339 405
e 339 592
e 339 675
e 339 642
e 341 385
e 341 714
e 341 352
e 342 660
e 342 413
e 342 434
e 343 977
e 344 944
e 344 924
e 344 641
e 344 558
e 345 681
e 345 650
e 345 784
e 345 791
e 350 974
e 350 517
e 351 834
e 351 565
e 351 671
e 352 358
e 353 427
e 353 780
e 354 685
e 354 796
e 356 384
e 356 376
e 356 863
e 356 391
e 357 611
e 357 618
e 357 758
e 358 562
e 358 471
e 359 885
e 359 830
e 360 971
e 360 597
e 361 972
e 361 949
e 361 458
e 362 461
e 362 696
e 362 601
e 363 455
e 363 476
e 364 481
e 364 821
e 364 702
e 365 579
e 366 540
e 366 781
e 366 719
e 366 997
e 368 693
e 369 918
e 369 983
e 369 595
e 369 702
e 369 795
e 370 704
e 370 887
e 370 816
e 370 398
e 370 645
e 371 584
e 371 481
e 371 686
e 373 498
e 373 582
e 374 872
e 374 486
e 374 689
e 374 482
e 374 446
e 374 742
e 374 453
e 375 422
e 375 607
e 375 535
e 375 737
e 376 964
e 376 880
e 376 809
e 378 751
e 378 938
e 378 524
e 379 906
e 379 971
e 379 798
e 379 785
e 384 398
e 384 941
e 385 490
e 385 483
e 386 714
e 386 615
e 387 519
e 387 476
e 387 847
e 388 442
e 388 671
e 388 569
e 389 566
e 389 837
e 389 390
e 389 840
e 390 567
e 390 467
e 391 394
e 391 772
e 391 766
e 391 778
e 392 783
e 394 428
e 394 493
e 394 494
e 395 693
e 395 962
e 396 919
e 396 734
e 397 797
e 397 734
e 397 642
e 397 511
e 398 788
e 399 533
e 399 631
e 399 716
e 404 920
e 404 776
e 404 562
e 404 778
e 404 907
e 405 963
e 405 827
e 406 941
e 406 691
e 407 859
e 407 652
e 407 865
e 407 790
e 407 541
e 409 797
e 409 708
e 410 795
e 410 596
e 411 672
e 411 965
e 411 668
e 411 750
e 411 848
e 411 587
e 412 609
e 412 758
e 412 500
e 413 730
e 413 545
e 413 861
e 413 524
e 416 597
e 416 522
e 419 895
e 419 763
e 421 596
e 421 829
e 421 692
e 421 535
e 422 985
e 423 611
e 423 885
e 424 638
e 425 524
e 425 767
e 426 611
e 426 531
e 426 528
e 427 915
e 427 481
e 428 760
e 430 472
e 430 911
e 430 439
e 432 515
e 432 678
e 432 535
e 434 780
e 434 895
e 434 907
e 435 871
e 435 986
e 435 991
e 436 714
e 436 729
e 436 911
e 436 840
e 437 526
e 437 921
e 438 894
e 439 938
e 440 610
e 442 558
e 442 739
e 442 578
e 442 684
e 442 874
e 443 537
e 443 949
e 445 895
e 445 453
e 445 654
e 445 716
e 445 863
e 446 527
e 447 581
e 448 517
e 448 623
e 448 559
e 450 516
e 450 532
e 451 757
e 451 669
e 452 564
e 452 763
e 453 951
e 454 844
e 455 592
e 457 996
e 457 796
e 458 469
e 458 887
e 458 615
e 461 813
e 461 989
e 462 760
e 462 921
e 462 905
e 463 904
e 465 524
e 465 629
e 465 627
e 466 499
e 466 919
e 466 888
e 466 519
e 466 853
e 467 642
e 468 556
e 468 918
e 468 726
e 469 726
e 469 545
e 469 763
e 470 817
e 470 983
e 471 961
e 471 937
e 471 576
e 471 723
e 473 727
e 475 758
e 476 626
e 476 966
e 477 901
e 477 732
e 478 686
e 479 596
e 479 938
e 479 577
e 479 556
e 480 783
e 480 700
e 480 793
e 480 553
e 481 928
e 481 491
e 481 915
e 481 797
e 482 767
e 482 851
e 482 919
e 483 490
e 483 885
e 483 732
e 483 505
e 486 935
e 486 525
e 486 932
e 486 553
e 488 543
e 488 839
e 489 511
e 489 994
e 489 506
e 489 772
e 490 881
e 491 909
e 491 968
e 491 895
e 492 667
e 492 678
e 493 612
e 493 944
e 493 549
e 494 541
e 494 709
e 497 568
e 497 922
e 497 732
e 498 914
e 498 880
e 499 950
e 500 573
e 500 669
e 503 932
e 503 862
e 504 910
e 504 747
e 504 862
e 504 950
e 506 839
e 506 607
e 506 730
e 507 876
e 507 660
e 507 818
e 508 605
e 510 997
e 510 939
e 510 954
e 510 758
e 510 883
e 510 705
e 511 649
e 511 962
e 515 694
e 515 983
e 515 527
e 516 771
e 516 679
e 516 619
e 517 578
e 518 623
e 518 956
e 518 607
e 518 837
e 518 533
e 519 637
e 520 709
e 520 828
e 520 907
e 521 952
e 521 900
e 521 912
e 523 815
e 524 962
e 524 930
e 525 635
e 526 564
e 526 985
e 526 993
e 527 637
e 527 577
e 527 776
e 528 860
e 528 947
e 528 824
e 529 727
e 529 626
e 530 595
e 530 819
e 530 799
e 532 761
e 532 601
e 532 996
e 532 714
e 534 641
e 534 709
e 535 790
e 535 737
e 535 944
e 535 883
e 536 835
e 536 652
e 536 549
e 537 978
e 537 989
e 539 666
e 539 576
e 540 692
e 540 933
e 541 694
e 541 758
e 541 764
e 542 834
e 543 603
e 543 872
e 543 820
e 544 764
e 545 916
e 545 681
e 546 568
e 546 824
e 549 627
e 551 817
e 551 685
e 552 561
e 553 986
e 553 965
e 554 629
e 554 569
e 555 720
e 555 735
e 556 997
e 557 965
e 557 711
e 557 911
e 558 632
e 558 586
e 559 954
e 559 947
e 559 745
e 560 669
e 560 685
e 561 746
e 562 774
e 562 839
e 562 899
e 562 722
e 564 628
e 565 858
e 565 675
e 566 650
e 566 851
e 566 891
e 567 631
e 567 827
e 567 986
e 569 989
e 569 744
e 569 774
e 569 997
e 569 823
e 571 619
e 572 966
e 572 838
e 573 574
e 573 984
e 573 761
e 574 658
e 576 906
e 577 780
e 577 857
e 578 870
e 579 915
e 579 750
e 580 801
e 580 838
e 581 764
e 582 605
e 582 984
e 584 671
e 584 685
e 584 900
e 585 762
e 585 812
e 586 700
e 587 746
e 587 631
e 592 835
e 592 969
e 592 799
e 593 812
e 594 874
e 595 900
e 596 815
e 596 921
e 596 904
e 597 624
e 597 630
e 598 754
e 601 812
e 601 776
e 601 924
e 603 763
e 604 636
e 606 895
e 606 684
e 606 747
e 608 923
e 609 638
e 609 791
e 610 705
e 610 829
e 611 826
e 612 630
e 612 711
e 612 838
e 612 758
e 615 951
e 615 989
e 616 697
e 616 625
e 616 692
e 618 635
e 618 642
e 618 674
e 619 707
e 623 631
e 624 933
e 625 956
e 627 630
e 627 636
e 628 891
e 628 958
e 628 951
e 629 738
e 629 760
e 629 830
e 630 746
e 630 634
e 632 673
e 632 838
e 635 816
e 635 772
e 636 905
e 636 945
e 636 912
e 636 692
e 636 787
e 636 699
e 636 750
e 637 697
e 637 685
e 637 675
e 637 934
e 637 869
e 641 726
e 642 735
e 642 752
e 642 988
e 648 839
e 648 915
e 650 964
e 652 954
e 653 786
e 654 921
e 654 909
e 655 668
e 655 824
e 655 998
e 658 922
e 658 967
e 660 833
e 661 851
e 661 872
e 663 919
e 665 785
e 665 996
e 665 956
e 666 938
e 667 938
e 668 933
e 669 904
e 669 964
e 671 684
e 671 693
e 671 745
e 671 799
e 672 742
e 673 961
e 673 988
e 673 720
e 674 692
e 675 859
e 675 711
e 675 944
e 676 820
e 676 941
e 676 950
e 678 950
e 679 910
e 679 772
e 680 831
e 680 883
e 681 876
e 682 881
e 682 998
e 682 978
e 682 970
e 684 932
e 685 945
e 685 847
e 686 702
e 689 939
e 691 891
e 691 916
e 692 798
e 693 729
e 693 912
e 694 790
e 694 924
e 694 805
e 695 813
e 695 923
e 696 947
e 697 879
e 699 712
e 700 883
e 700 748
e 700 864
e 702 963
e 702 942
e 704 945
e 707 716
e 708 805
e 708 895
e 712 787
e 712 985
e 714 993
e 714 890
e 719 902
e 722 771
e 723 905
e 726 881
e 727 778
e 727 888
e 728 773
e 730 968
e 730 827
e 732 795
e 732 909
e 732 844
e 733 991
e 733 769
e 734 788
e 735 858
e 735 896
e 738 977
e 738 785
e 739 879
e 739 751
e 739 793
e 742 970
e 744 951
e 744 969
e 745 967
e 746 812
e 747 897
e 748 940
e 749 910
e 750 761
e 750 859
e 751 797
e 751 931
e 751 880
e 752 874
e 752 774
e 754 991
e 756 964
e 756 854
e 757 848
e 761 891
e 761 969
e 761 793
e 763 772
e 763 805
e 764 774
e 765 879
e 766 871
e 767 935
e 771 999
e 773 962
e 774 916
e 774 914
e 774 857
e 776 965
e 776 945
e 777 961
e 777 923
e 777 826
e 778 938
e 780 960
e 781 966
e 783 838
e 784 962
e 788 818
e 788 971
e 796 941
e 796 952
e 797 813
e 798 920
e 799 919
e 799 831
e 799 972
e 799 935
e 801 835
e 802 952
e 802 827
e 808 919
e 808 920
e 809 983
e 809 982
e 809 848
e 809 930
e 812 991
e 813 950
e 816 854
e 817 839
e 817 969
e 819 839
e 822 829
e 822 867
e 828 927
e 828 889
e 830 918
e 831 942
e 834 897
e 834 862
e 840 945
e 841 919
e 842 993
e 844 977
e 846 889
e 847 879
e 848 930
e 855 994
e 858 875
e 858 906
e 860 984
e 863 875
e 865 915
e 867 958
e 867 875
e 870 950
e 872 993
e 872 890
e 879 918
e 880 978
e 880 918
e 883 985
e 888 1000
e 890 922
e 894 972
e 899 969
e 899 934
e 911 922
e 912 960
e 928 931
e 932 972
e 933 942
e 934 969
e 939 994
e 940 952
e 942 984
e 961 988
e 985 996
e 993 1000
