txt_Ins/graph-1000-346.txt
n 1000
e 0 228
e 0 16
e 0 558
e 0 690
e 0 497
e 0 570
e 2 839
e 2 335
e 2 538
e 2 524
e 2 487
e 2 31
e 2 195
e 3 947
e 3 10
e 3 351
e 3 690
e 3 154
e 4 334
e 4 361
e 4 487
e 4 662
e 6 24
e 6 771
e 6 698
e 6 327
e 7 520
e 7 485
e 7 47
e 7 780
e 7 593
e 7 693
e 8 96
e 8 683
e 8 926
e 8 887
e 8 670
e 9 913
e 9 222
e 9 264
e 10 474
e 10 17
e 10 554
e 10 115
e 10 833
e 11 515
e 11 615
e 11 863
e 11 801
e 11 695
e 11 129
e 12 993
e 12 532
e 12 820
e 12 155
e 13 321
e 13 594
e 13 329
e 13 900
e 13 944
e 13 470
e 15 797
e 15 103
e 15 274
e 15 823
e 16 310
e 16 166
e 16 57
e 16 251
e 16 235
e 16 486
e 17 901
e 17 165
e 17 397
e 17 608
e 17 698
e 18 285
e 18 106
e 18 720
e 18 479
e 21 525
e 21 723
e 21 356
e 21 197
e 22 834
e 22 330
e 22 901
e 22 304
e 22 278
e 22 747
e 22 696
e 23 611
e 23 423
e 23 499
e 23 516
e 23 637
e 23 434
e 23 701
e 23 101
e 24 356
e 24 444
e 25 526
e 25 512
e 25 485
e 25 110
e 25 119
e 25 870
e 26 703
e 26 329
e 26 569
e 26 671
e 26 107
e 27 963
e 27 289
e 27 321
e 29 405
e 29 593
e 29 40
e 29 488
e 29 949
e 29 149
e 29 909
e 29 85
e 29 556
e 31 611
e 31 856
e 31 162
e 31 762
e 31 852
e 31 410
e 32 581
e 32 358
e 32 981
e 32 338
e 32 233
e 32 726
e 36 498
e 36 951
e 36 134
e 36 512
e 36 529
e 38 230
e 38 67
e 38 153
e 38 365
e 38 451
e 38 441
e 39 875
e 39 911
e 39 898
e 39 394
e 40 531
e 40 467
e 40 209
e 40 766
e 40 990
e 40 562
e 40 577
e 41 326
e 41 840
e 41 75
e 41 579
e 42 301
e 42 660
e 42 748
e 43 45
e 43 823
e 43 819
e 43 128
e 43 564
e 43 147
e 44 597
e 44 299
e 44 175
e 44 220
e 45 482
e 45 154
e 45 559
e 45 901
e 45 888
e 45 113
e 45 445
e 46 119
e 46 651
e 46 785
e 46 571
e 46 221
e 47 512
e 47 837
e 47 937
e 47 652
e 49 826
e 49 301
e 49 232
e 50 123
e 50 667
e 50 437
e 50 140
e 51 119
e 51 858
e 51 804
e 51 68
e 52 733
e 52 948
e 52 236
e 52 453
e 52 425
e 52 688
e 52 327
e 52 409
e 52 336
e 52 232
e 54 627
e 54 888
e 54 387
e 55 74
e 55 441
e 55 677
e 55 422
e 55 137
e 55 948
e 55 941
e 55 953
e 56 866
e 56 845
e 56 832
e 56 828
e 56 861
e 56 254
e 56 932
e 57 647
e 57 869
e 57 523
e 57 461
e 57 727
e 57 266
e 57 462
e 57 764
e 57 403
e 58 728
e 58 342
e 58 75
e 58 225
e 58 947
e 58 238
e 58 863
e 59 262
e 59 723
e 59 801
e 59 896
e 61 772
e 61 78
e 61 558
e 61 946
e 62 523
e 62 856
e 62 960
e 62 328
e 63 971
e 63 592
e 63 113
e 63 832
e 63 133
e 64 106
e 64 391
e 64 137
e 64 721
e 64 840
e 64 395
e 65 104
e 65 85
e 65 137
e 65 177
e 65 798
e 65 140
e 65 623
e 65 364
e 67 367
e 67 289
e 68 761
e 68 822
e 68 551
e 68 644
e 69 568
e 69 651
e 69 110
e 69 666
e 70 273
e 70 949
e 70 578
e 70 184
e 70 757
e 70 87
e 71 920
e 71 684
e 71 776
e 72 944
e 72 814
e 72 100
e 72 148
e 72 926
e 72 923
e 73 313
e 73 830
e 73 947
e 73 314
e 73 464
e 74 213
e 74 746
e 74 944
e 74 140
e 75 418
e 75 321
e 75 415
e 77 572
e 77 389
e 77 155
e 77 966
e 77 644
e 78 251
e 78 719
e 79 429
e 79 859
e 79 279
e 80 524
e 80 296
e 80 374
e 81 634
e 81 839
e 81 955
e 82 468
e 82 352
e 82 936
e 82 282
e 83 486
e 83 847
e 83 878
e 83 87
e 83 698
e 84 252
e 84 629
e 84 471
e 84 530
e 85 790
e 85 338
e 85 838
e 85 713
e 85 210
e 85 273
e 87 522
e 88 239
e 88 96
e 88 564
e 88 90
e 90 693
e 90 845
e 90 938
e 90 436
e 90 670
e 90 252
e 90 540
e 90 442
e 91 626
e 91 328
e 91 572
e 91 469
e 91 452
e 92 361
e 92 295
e 92 253
e 94 445
e 94 648
e 94 936
e 96 307
e 96 766
e 96 762
e 96 846
e 96 115
e 98 722
e 98 236
e 98 879
e 98 631
e 98 162
e 98 691
e 98 920
e 98 103
e 98 125
e 100 367
e 100 719
e 101 438
e 101 548
e 101 439
e 101 320
e 101 233
e 102 603
e 102 933
e 102 659
e 102 507
e 103 812
e 103 772
e 103 541
e 103 160
e 103 720
e 104 127
e 104 570
e 104 183
e 104 536
e 104 868
e 104 551
e 106 369
e 106 593
e 106 334
e 106 692
e 107 573
e 107 653
e 108 797
e 108 673
e 108 919
e 108 557
e 108 528
e 108 965
e 108 139
e 108 593
e 108 173
e 108 523
e 110 385
e 110 279
e 110 200
e 111 383
e 111 741
e 111 166
e 111 833
e 112 933
e 112 941
e 112 119
e 113 853
e 113 131
e 114 792
e 114 274
e 114 992
e 115 262
e 115 159
e 115 210
e 115 560
e 118 200
e 118 467
e 118 919
e 119 804
e 119 917
e 119 853
e 119 222
e 119 597
e 119 721
e 120 221
e 120 586
e 120 573
e 120 496
e 122 565
e 122 373
e 122 615
e 122 313
e 123 151
e 123 313
e 124 529
e 124 926
e 124 258
e 125 704
e 125 941
e 127 800
e 127 953
e 128 390
e 128 564
e 128 773
e 128 895
e 129 488
e 129 151
e 130 657
e 130 900
e 130 409
e 130 962
e 130 579
e 130 889
e 130 359
e 131 424
e 131 486
e 131 934
e 131 545
e 131 156
e 132 647
e 132 452
e 132 253
e 132 653
e 133 783
e 133 846
e 133 840
e 133 936
e 134 350
e 134 543
e 136 226
e 136 482
e 136 890
e 136 541
e 137 372
e 137 695
e 137 558
e 137 843
e 137 921
e 138 903
e 138 189
e 138 302
e 138 884
e 139 694
e 139 476
e 139 328
e 139 942
e 140 561
e 140 887
e 140 942
e 140 553
e 143 504
e 143 576
e 143 294
e 143 627
e 143 649
e 143 423
e 143 674
e 147 818
e 147 544
e 147 383
e 147 841
e 148 949
e 148 446
e 148 150
e 148 333
e 149 624
e 149 794
e 149 829
e 149 785
e 150 529
e 150 195
e 151 592
e 151 757
e 151 364
e 151 755
e 151 633
e 153 361
e 153 488
e 153 854
e 154 352
e 154 274
e 155 482
e 155 383
e 155 578
e 155 966
e 156 488
e 156 579
e 156 617
e 156 721
e 156 211
e 157 629
e 157 827
e 157 453
e 157 198
e 159 798
e 159 996
e 159 734
e 160 304
e 160 918
e 160 787
e 160 836
e 160 786
e 161 569
e 161 577
e 161 733
e 161 286
e 162 807
e 163 738
e 163 507
e 163 556
e 163 581
e 163 388
e 163 325
e 164 202
e 164 981
e 164 983
e 164 182
e 164 333
e 165 947
e 165 485
e 165 684
e 165 597
e 165 713
e 165 527
e 165 213
e 166 738
e 166 633
e 166 923
e 166 550
e 167 944
e 167 794
e 167 811
e 167 176
e 169 977
e 169 822
e 169 723
e 169 336
e 169 578
e 170 438
e 170 782
e 170 404
e 170 868
e 173 727
e 173 514
e 173 685
e 173 496
e 175 572
e 175 652
e 175 696
e 176 973
e 176 420
e 176 942
e 177 718
e 177 746
e 177 657
e 177 391
e 177 243
e 177 247
e 177 970
e 179 488
e 179 748
e 179 679
e 179 322
e 179 267
e 180 918
e 180 926
e 180 951
e 180 884
e 180 973
e 180 195
e 180 997
e 180 913
e 182 562
e 182 754
e 183 562
e 183 243
e 184 580
e 184 600
e 184 245
e 185 768
e 185 436
e 185 648
e 186 566
e 186 275
e 186 226
e 187 783
e 187 625
e 187 214
e 187 295
e 189 814
e 189 378
e 189 921
e 190 951
e 190 516
e 190 471
e 190 431
e 190 442
e 191 999
e 191 741
e 191 560
e 191 959
e 191 586
e 191 968
e 193 375
e 193 349
e 193 720
e 195 941
e 195 906
e 195 895
e 195 471
e 197 532
e 197 322
e 197 603
e 197 955
e 198 199
e 198 310
e 198 967
e 198 261
e 199 846
e 199 760
e 200 961
e 200 441
e 201 826
e 201 454
e 201 294
e 201 213
e 202 439
e 202 436
e 202 242
e 203 948
e 203 308
e 203 505
e 203 637
e 204 973
e 204 239
e 204 404
e 204 684
e 204 470
e 206 919
e 206 863
e 206 944
e 206 846
e 206 662
e 208 817
e 208 567
e 208 636
e 208 795
e 208 248
e 209 290
e 209 736
e 210 764
e 210 607
e 211 267
e 211 668
e 212 226
e 212 939
e 212 868
e 213 514
e 214 343
e 214 591
e 214 321
e 214 665
e 214 847
e 216 904
e 216 394
e 216 421
e 216 248
e 216 772
e 216 472
e 217 441
e 217 226
e 217 575
e 217 472
e 219 499
e 219 541
e 219 738
e 219 808
e 220 698
e 220 859
e 221 437
e 221 888
e 222 527
e 222 536
e 222 600
e 223 737
e 223 577
e 223 593
e 224 936
e 224 692
e 224 577
e 224 738
e 225 519
e 225 238
e 225 557
e 225 984
e 226 748
e 226 442
e 226 910
e 228 903
e 228 294
e 228 326
e 228 882
e 230 922
e 230 921
e 231 602
e 231 743
e 231 893
e 231 591
e 232 296
e 232 478
e 232 369
e 233 530
e 233 843
e 233 971
e 233 593
e 233 772
e 235 456
e 235 756
e 235 571
e 235 691
e 235 930
e 236 412
e 236 636
e 236 477
e 236 923
e 236 269
e 237 955
e 237 899
e 237 362
e 237 427
e 238 754
e 238 373
e 238 657
e 238 941
e 239 285
e 239 431
e 239 415
e 239 866
e 239 256
e 239 984
e 239 657
e 240 874
e 240 753
e 240 261
e 240 528
e 241 878
e 241 431
e 241 578
e 241 926
e 241 837
e 241 982
e 241 466
e 242 449
e 242 966
e 242 625
e 242 615
e 242 875
e 243 519
e 243 517
e 243 372
e 243 971
e 244 929
e 244 302
e 244 502
e 244 983
e 245 861
e 245 404
e 245 886
e 247 521
e 247 998
e 247 343
e 248 951
e 248 949
e 249 852
e 249 785
e 249 733
e 249 665
e 249 845
e 249 625
e 249 577
e 249 659
e 251 543
e 251 497
e 251 263
e 251 600
e 252 880
e 252 707
e 253 825
e 253 531
e 254 754
e 254 707
e 254 279
e 254 703
e 254 424
e 256 512
e 256 992
e 256 652
e 256 795
e 256 584
e 257 630
e 257 361
e 257 688
e 257 860
e 258 272
e 258 553
e 258 811
e 258 706
e 258 398
e 259 760
e 259 941
e 259 699
e 259 368
e 261 941
e 261 475
e 261 519
e 261 929
e 261 307
e 261 768
e 262 336
e 262 529
e 263 732
e 263 647
e 264 801
e 264 672
e 265 557
e 265 685
e 265 839
e 265 433
e 265 798
e 266 567
e 266 604
e 266 685
e 266 285
e 266 706
e 266 333
e 267 904
e 269 927
e 269 527
e 270 450
e 270 668
e 270 464
e 270 760
e 272 761
e 272 607
e 272 875
e 272 859
e 273 506
e 273 890
e 273 888
e 274 578
e 274 374
e 274 743
e 275 462
e 275 833
e 278 438
e 278 314
e 278 374
e 278 404
e 279 860
e 282 943
e 282 491
e 282 786
e 285 841
e 285 342
e 285 652
e 285 569
e 286 446
e 286 753
e 286 489
e 288 659
e 288 955
e 288 512
e 288 820
e 288 756
e 288 999
e 289 888
e 289 743
e 289 857
e 289 657
e 290 652
e 290 671
e 290 798
e 292 785
e 292 552
e 292 530
e 292 815
e 293 477
e 293 869
e 293 900
e 293 998
e 293 681
e 294 959
e 294 927
e 295 353
e 296 502
e 296 408
e 296 839
e 299 797
e 299 845
e 299 398
e 299 509
e 299 522
e 301 864
e 301 534
e 302 969
e 303 395
e 303 854
e 303 467
e 304 766
e 306 852
e 306 521
e 306 312
e 306 533
e 307 525
e 307 423
e 307 538
e 308 870
e 308 624
e 308 825
e 310 821
e 310 760
e 311 316
e 311 436
e 311 475
e 312 377
e 312 976
e 312 931
e 313 475
e 313 715
e 314 893
e 314 529
e 314 327
e 316 723
e 316 782
e 316 474
e 316 600
e 317 940
e 317 504
e 317 652
e 320 688
e 320 880
e 321 679
e 321 585
e 322 858
e 323 464
e 323 410
e 323 820
e 323 879
e 325 753
e 325 545
e 325 478
e 325 531
e 326 575
e 327 615
e 328 509
e 329 577
e 329 514
e 329 604
e 330 535
e 330 583
e 330 967
e 331 383
e 331 698
e 331 395
e 334 957
e 335 675
e 335 578
e 335 765
e 335 780
e 336 652
e 336 759
e 336 624
e 336 719
e 338 779
e 338 404
e 338 591
e 338 674
e 338 641
e 340 384
e 340 713
e 340 351
e 341 659
e 341 412
e 341 433
e 342 976
e 343 943
e 343 923
e 343 640
e 343 557
e 344 680
e 344 649
e 344 783
e 344 790
e 349 973
e 349 516
e 350 833
e 350 564
e 350 670
e 351 357
e 352 426
e 352 779
e 353 684
e 353 795
e 355 383
e 355 375
e 355 862
e 355 390
e 356 610
e 356 617
e 356 757
e 357 561
e 357 470
e 358 884
e 358 829
e 359 970
e 359 596
e 360 971
e 360 948
e 360 457
e 361 460
e 361 695
e 361 600
e 362 454
e 362 475
e 363 480
e 363 820
e 363 701
e 364 578
e 365 539
e 365 780
e 365 718
e 365 996
e 367 692
e 368 917
e 368 982
e 368 594
e 368 701
e 368 794
e 369 703
e 369 886
e 369 815
e 369 397
e 369 644
e 370 583
e 370 480
e 370 685
e 372 497
e 372 581
e 373 871
e 373 485
e 373 688
e 373 481
e 373 445
e 373 741
e 373 452
e 374 421
e 374 606
e 374 534
e 374 736
e 375 963
e 375 879
e 375 808
e 377 750
e 377 937
e 377 523
e 378 905
e 378 970
e 378 797
e 378 784
e 383 397
e 383 940
e 384 489
e 384 482
e 385 713
e 385 614
e 386 518
e 386 475
e 386 846
e 387 441
e 387 670
e 387 568
e 388 565
e 388 836
e 388 389
e 388 839
e 389 566
e 389 466
e 390 393
e 390 771
e 390 765
e 390 777
e 391 782
e 393 427
e 393 492
e 393 493
e 394 692
e 394 961
e 395 918
e 395 733
e 396 796
e 396 733
e 396 641
e 396 510
e 397 787
e 398 532
e 398 630
e 398 715
e 403 919
e 403 775
e 403 561
e 403 777
e 403 906
e 404 962
e 404 826
e 405 940
e 405 690
e 406 858
e 406 651
e 406 864
e 406 789
e 406 540
e 408 796
e 408 707
e 409 794
e 409 595
e 410 671
e 410 964
e 410 667
e 410 749
e 410 847
e 410 586
e 411 608
e 411 757
e 411 499
e 412 729
e 412 544
e 412 860
e 412 523
e 415 596
e 415 521
e 418 894
e 418 762
e 420 595
e 420 828
e 420 691
e 420 534
e 421 984
e 422 610
e 422 884
e 423 637
e 424 523
e 424 766
e 425 610
e 425 530
e 425 527
e 426 914
e 426 480
e 427 759
e 429 471
e 429 910
e 429 438
e 431 514
e 431 677
e 431 534
e 433 779
e 433 894
e 433 906
e 434 870
e 434 985
e 434 990
e 435 713
e 435 728
e 435 910
e 435 839
e 436 525
e 436 920
e 437 893
e 438 937
e 439 609
e 441 557
e 441 738
e 441 577
e 441 683
e 441 873
e 442 536
e 442 948
e 444 894
e 444 452
e 444 653
e 444 715
e 444 862
e 445 526
e 446 580
e 447 516
e 447 622
e 447 558
e 449 515
e 449 531
e 450 756
e 450 668
e 451 563
e 451 762
e 452 950
e 453 843
e 454 591
e 456 995
e 456 795
e 457 468
e 457 886
e 457 614
e 460 812
e 460 988
e 461 759
e 461 920
e 461 904
e 462 903
e 464 523
e 464 628
e 464 626
e 465 498
e 465 918
e 465 887
e 465 518
e 465 852
e 466 641
e 467 555
e 467 917
e 467 725
e 468 725
e 468 544
e 468 762
e 469 816
e 469 982
e 470 960
e 470 936
e 470 575
e 470 722
e 472 726
e 474 757
e 475 625
e 475 965
e 476 900
e 476 731
e 477 685
e 478 595
e 478 937
e 478 576
e 478 555
e 479 782
e 479 699
e 479 792
e 479 552
e 480 927
e 480 490
e 480 914
e 480 796
e 481 766
e 481 850
e 481 918
e 482 489
e 482 884
e 482 731
e 482 504
e 485 934
e 485 524
e 485 931
e 485 552
e 487 542
e 487 838
e 488 510
e 488 993
e 488 505
e 488 771
e 489 880
e 490 908
e 490 967
e 490 894
e 491 666
e 491 677
e 492 611
e 492 943
e 492 548
e 493 540
e 493 708
e 496 567
e 496 921
e 496 731
e 497 913
e 497 879
e 498 949
e 499 572
e 499 668
e 502 931
e 502 861
e 503 909
e 503 746
e 503 861
e 503 949
e 505 838
e 505 606
e 505 729
e 506 875
e 506 659
e 506 817
e 507 604
e 509 996
e 509 938
e 509 953
e 509 757
e 509 882
e 509 704
e 510 648
e 510 961
e 514 693
e 514 982
e 514 526
e 515 770
e 515 678
e 515 618
e 516 577
e 517 622
e 517 955
e 517 606
e 517 836
e 517 532
e 518 636
e 519 708
e 519 827
e 519 906
e 520 951
e 520 899
e 520 911
e 522 814
e 523 961
e 523 929
e 524 634
e 525 563
e 525 984
e 525 992
e 526 636
e 526 576
e 526 775
e 527 859
e 527 946
e 527 823
e 528 726
e 528 625
e 529 594
e 529 818
e 529 798
e 531 760
e 531 600
e 531 995
e 531 713
e 533 640
e 533 708
e 534 789
e 534 736
e 534 943
e 534 882
e 535 834
e 535 651
e 535 548
e 536 977
e 536 988
e 538 665
e 538 575
e 539 691
e 539 932
e 540 693
e 540 757
e 540 763
e 541 833
e 542 602
e 542 871
e 542 819
e 543 763
e 544 915
e 544 680
e 545 567
e 545 823
e 548 626
e 550 816
e 550 684
e 551 560
e 552 985
e 552 964
e 553 628
e 553 568
e 554 719
e 554 734
e 555 996
e 556 964
e 556 710
e 556 910
e 557 631
e 557 585
e 558 953
e 558 946
e 558 744
e 559 668
e 559 684
e 560 745
e 561 773
e 561 838
e 561 898
e 561 721
e 563 627
e 564 857
e 564 674
e 565 649
e 565 850
e 565 890
e 566 630
e 566 826
e 566 985
e 568 988
e 568 743
e 568 773
e 568 996
e 568 822
e 570 618
e 571 965
e 571 837
e 572 573
e 572 983
e 572 760
e 573 657
e 575 905
e 576 779
e 576 856
e 577 869
e 578 914
e 578 749
e 579 800
e 579 837
e 580 763
e 581 604
e 581 983
e 583 670
e 583 684
e 583 899
e 584 761
e 584 811
e 585 699
e 586 745
e 586 630
e 591 834
e 591 968
e 591 798
e 592 811
e 593 873
e 594 899
e 595 814
e 595 920
e 595 903
e 596 623
e 596 629
e 597 753
e 600 811
e 600 775
e 600 923
e 602 762
e 603 635
e 605 894
e 605 683
e 605 746
e 607 922
e 608 637
e 608 790
e 609 704
e 609 828
e 610 825
e 611 629
e 611 710
e 611 837
e 611 757
e 614 950
e 614 988
e 615 696
e 615 624
e 615 691
e 617 634
e 617 641
e 617 673
e 618 706
e 622 630
e 623 932
e 624 955
e 626 629
e 626 635
e 627 890
e 627 957
e 627 950
e 628 737
e 628 759
e 628 829
e 629 745
e 629 633
e 631 672
e 631 837
e 634 815
e 634 771
e 635 904
e 635 944
e 635 911
e 635 691
e 635 786
e 635 698
e 635 749
e 636 696
e 636 684
e 636 674
e 636 933
e 636 868
e 640 725
e 641 734
e 641 751
e 641 987
e 647 838
e 647 914
e 649 963
e 651 953
e 652 785
e 653 920
e 653 908
e 654 667
e 654 823
e 654 997
e 657 921
e 657 966
e 659 832
e 660 850
e 660 871
e 662 918
e 664 784
e 664 995
e 664 955
e 665 937
e 666 937
e 667 932
e 668 903
e 668 963
e 670 683
e 670 692
e 670 744
e 670 798
e 671 741
e 672 960
e 672 987
e 672 719
e 673 691
e 674 858
e 674 710
e 674 943
e 675 819
e 675 940
e 675 949
e 677 949
e 678 909
e 678 771
e 679 830
e 679 882
e 680 875
e 681 880
e 681 997
e 681 977
e 681 969
e 683 931
e 684 944
e 684 846
e 685 701
e 688 938
e 690 890
e 690 915
e 691 797
e 692 728
e 692 911
e 693 789
e 693 923
e 693 804
e 694 812
e 694 922
e 695 946
e 696 878
e 698 711
e 699 882
e 699 747
e 699 863
e 701 962
e 701 941
e 703 944
e 706 715
e 707 804
e 707 894
e 711 786
e 711 984
e 713 992
e 713 889
e 718 901
e 721 770
e 722 904
e 725 880
e 726 777
e 726 887
e 727 772
e 729 967
e 729 826
e 731 794
e 731 908
e 731 843
e 732 990
e 732 768
e 733 787
e 734 857
e 734 895
e 737 976
e 737 784
e 738 878
e 738 750
e 738 792
e 741 969
e 743 950
e 743 968
e 744 966
e 745 811
e 746 896
e 747 939
e 748 909
e 749 760
e 749 858
e 750 796
e 750 930
e 750 879
e 751 873
e 751 773
e 753 990
e 755 963
e 755 853
e 756 847
e 760 890
e 760 968
e 760 792
e 762 771
e 762 804
e 763 773
e 764 878
e 765 870
e 766 934
e 770 998
e 772 961
e 773 915
e 773 913
e 773 856
e 775 964
e 775 944
e 776 960
e 776 922
e 776 825
e 777 937
e 779 959
e 780 965
e 782 837
e 783 961
e 787 817
e 787 970
e 795 940
e 795 951
e 796 812
e 797 919
e 798 918
e 798 830
e 798 971
e 798 934
e 800 834
e 801 951
e 801 826
e 807 918
e 807 919
e 808 982
e 808 981
e 808 847
e 808 929
e 811 990
e 812 949
e 815 853
e 816 838
e 816 968
e 818 838
e 821 828
e 821 866
e 827 926
e 827 888
e 829 917
e 830 941
e 833 896
e 833 861
e 839 944
e 840 918
e 841 992
e 843 976
e 845 888
e 846 878
e 847 929
e 854 993
e 857 874
e 857 905
e 859 983
e 862 874
e 864 914
e 866 957
e 866 874
e 869 949
e 871 992
e 871 889
e 878 917
e 879 977
e 879 917
e 882 984
e 887 999
e 889 921
e 893 971
e 898 968
e 898 933
e 910 921
e 911 959
e 927 930
e 931 971
e 932 941
e 933 968
e 938 993
e 939 951
e 941 983
e 960 987
e 984 995
e 992 999
